* #variable= 9 #constraint= 105
* variable i0 -3 .. 5 bits encoding
-8 i0n3 1 i0b0 2 i0b1 4 i0b2 >= -3 ;
8 i0n3 -1 i0b0 -2 i0b1 -4 i0b2 >= -5 ;
* variable i1 -3 .. 5 bits encoding
-8 i1n3 1 i1b0 2 i1b1 4 i1b2 >= -3 ;
8 i1n3 -1 i1b0 -2 i1b1 -4 i1b2 >= -5 ;
* variable i2 0 .. 1 direct encoding
1 i2t >= 0 ;
* constraint equals iff
* need lower bound for i0e-3
* need i0g-2
-8 i0n3 1 i0b0 2 i0b1 4 i0b2 6 ~i0g-2 >= -2 ;
8 i0n3 -1 i0b0 -2 i0b1 -4 i0b2 10 i0g-2 >= 3 ;
1 ~i0g-2 1 ~i0e-3 >= 1 ;
1 i0g-2 1 i0e-3 >= 1 ;
* need lower bound for i1e-3
* need i1g-2
-8 i1n3 1 i1b0 2 i1b1 4 i1b2 6 ~i1g-2 >= -2 ;
8 i1n3 -1 i1b0 -2 i1b1 -4 i1b2 10 i1g-2 >= 3 ;
1 ~i1g-2 1 ~i1e-3 >= 1 ;
1 i1g-2 1 i1e-3 >= 1 ;
1 ~i0e-3 1 i1e-3 1 ~i2t >= 1 ;
* need i0e-2
* need i0g-1
-8 i0n3 1 i0b0 2 i0b1 4 i0b2 7 ~i0g-1 >= -1 ;
8 i0n3 -1 i0b0 -2 i0b1 -4 i0b2 9 i0g-1 >= 2 ;
1 i0g-2 1 ~i0g-1 >= 1 ;
1 i0g-2 1 ~i0g-1 2 ~i0e-2 >= 2 ;
1 ~i0g-2 1 i0g-1 1 i0e-2 >= 1 ;
* need i1e-2
* need i1g-1
-8 i1n3 1 i1b0 2 i1b1 4 i1b2 7 ~i1g-1 >= -1 ;
8 i1n3 -1 i1b0 -2 i1b1 -4 i1b2 9 i1g-1 >= 2 ;
1 i1g-2 1 ~i1g-1 >= 1 ;
1 i1g-2 1 ~i1g-1 2 ~i1e-2 >= 2 ;
1 ~i1g-2 1 i1g-1 1 i1e-2 >= 1 ;
1 ~i0e-2 1 i1e-2 1 ~i2t >= 1 ;
* need i0e-1
* need i0g0
-8 i0n3 1 i0b0 2 i0b1 4 i0b2 8 ~i0g0 >= 0 ;
8 i0n3 -1 i0b0 -2 i0b1 -4 i0b2 8 i0g0 >= 1 ;
1 i0g-1 1 ~i0g0 >= 1 ;
1 i0g-1 1 ~i0g0 2 ~i0e-1 >= 2 ;
1 ~i0g-1 1 i0g0 1 i0e-1 >= 1 ;
* need i1e-1
* need i1g0
-8 i1n3 1 i1b0 2 i1b1 4 i1b2 8 ~i1g0 >= 0 ;
8 i1n3 -1 i1b0 -2 i1b1 -4 i1b2 8 i1g0 >= 1 ;
1 i1g-1 1 ~i1g0 >= 1 ;
1 i1g-1 1 ~i1g0 2 ~i1e-1 >= 2 ;
1 ~i1g-1 1 i1g0 1 i1e-1 >= 1 ;
1 ~i0e-1 1 i1e-1 1 ~i2t >= 1 ;
* need i0e0
* need i0g1
-8 i0n3 1 i0b0 2 i0b1 4 i0b2 9 ~i0g1 >= 1 ;
8 i0n3 -1 i0b0 -2 i0b1 -4 i0b2 7 i0g1 >= 0 ;
1 i0g0 1 ~i0g1 >= 1 ;
1 i0g0 1 ~i0g1 2 ~i0e0 >= 2 ;
1 ~i0g0 1 i0g1 1 i0e0 >= 1 ;
* need i1e0
* need i1g1
-8 i1n3 1 i1b0 2 i1b1 4 i1b2 9 ~i1g1 >= 1 ;
8 i1n3 -1 i1b0 -2 i1b1 -4 i1b2 7 i1g1 >= 0 ;
1 i1g0 1 ~i1g1 >= 1 ;
1 i1g0 1 ~i1g1 2 ~i1e0 >= 2 ;
1 ~i1g0 1 i1g1 1 i1e0 >= 1 ;
1 ~i0e0 1 i1e0 1 ~i2t >= 1 ;
* need i0e1
* need i0g2
-8 i0n3 1 i0b0 2 i0b1 4 i0b2 10 ~i0g2 >= 2 ;
8 i0n3 -1 i0b0 -2 i0b1 -4 i0b2 6 i0g2 >= -1 ;
1 i0g1 1 ~i0g2 >= 1 ;
1 i0g1 1 ~i0g2 2 ~i0e1 >= 2 ;
1 ~i0g1 1 i0g2 1 i0e1 >= 1 ;
* need i1e1
* need i1g2
-8 i1n3 1 i1b0 2 i1b1 4 i1b2 10 ~i1g2 >= 2 ;
8 i1n3 -1 i1b0 -2 i1b1 -4 i1b2 6 i1g2 >= -1 ;
1 i1g1 1 ~i1g2 >= 1 ;
1 i1g1 1 ~i1g2 2 ~i1e1 >= 2 ;
1 ~i1g1 1 i1g2 1 i1e1 >= 1 ;
1 ~i0e1 1 i1e1 1 ~i2t >= 1 ;
* need i0e2
* need i0g3
-8 i0n3 1 i0b0 2 i0b1 4 i0b2 11 ~i0g3 >= 3 ;
8 i0n3 -1 i0b0 -2 i0b1 -4 i0b2 5 i0g3 >= -2 ;
1 i0g2 1 ~i0g3 >= 1 ;
1 i0g2 1 ~i0g3 2 ~i0e2 >= 2 ;
1 ~i0g2 1 i0g3 1 i0e2 >= 1 ;
* need i1e2
* need i1g3
-8 i1n3 1 i1b0 2 i1b1 4 i1b2 11 ~i1g3 >= 3 ;
8 i1n3 -1 i1b0 -2 i1b1 -4 i1b2 5 i1g3 >= -2 ;
1 i1g2 1 ~i1g3 >= 1 ;
1 i1g2 1 ~i1g3 2 ~i1e2 >= 2 ;
1 ~i1g2 1 i1g3 1 i1e2 >= 1 ;
1 ~i0e2 1 i1e2 1 ~i2t >= 1 ;
* need i0e3
* need i0g4
-8 i0n3 1 i0b0 2 i0b1 4 i0b2 12 ~i0g4 >= 4 ;
8 i0n3 -1 i0b0 -2 i0b1 -4 i0b2 4 i0g4 >= -3 ;
1 i0g3 1 ~i0g4 >= 1 ;
1 i0g3 1 ~i0g4 2 ~i0e3 >= 2 ;
1 ~i0g3 1 i0g4 1 i0e3 >= 1 ;
* need i1e3
* need i1g4
-8 i1n3 1 i1b0 2 i1b1 4 i1b2 12 ~i1g4 >= 4 ;
8 i1n3 -1 i1b0 -2 i1b1 -4 i1b2 4 i1g4 >= -3 ;
1 i1g3 1 ~i1g4 >= 1 ;
1 i1g3 1 ~i1g4 2 ~i1e3 >= 2 ;
1 ~i1g3 1 i1g4 1 i1e3 >= 1 ;
1 ~i0e3 1 i1e3 1 ~i2t >= 1 ;
* need i0e4
* need i0g5
-8 i0n3 1 i0b0 2 i0b1 4 i0b2 13 ~i0g5 >= 5 ;
8 i0n3 -1 i0b0 -2 i0b1 -4 i0b2 3 i0g5 >= -4 ;
1 i0g4 1 ~i0g5 >= 1 ;
1 i0g4 1 ~i0g5 2 ~i0e4 >= 2 ;
1 ~i0g4 1 i0g5 1 i0e4 >= 1 ;
* need i1e4
* need i1g5
-8 i1n3 1 i1b0 2 i1b1 4 i1b2 13 ~i1g5 >= 5 ;
8 i1n3 -1 i1b0 -2 i1b1 -4 i1b2 3 i1g5 >= -4 ;
1 i1g4 1 ~i1g5 >= 1 ;
1 i1g4 1 ~i1g5 2 ~i1e4 >= 2 ;
1 ~i1g4 1 i1g5 1 i1e4 >= 1 ;
1 ~i0e4 1 i1e4 1 ~i2t >= 1 ;
* need upper bound for i0e5
1 i0g5 1 ~i0e5 >= 1 ;
1 ~i0g5 1 i0e5 >= 1 ;
* need upper bound for i1e5
1 i1g5 1 ~i1e5 >= 1 ;
1 ~i1g5 1 i1e5 >= 1 ;
1 ~i0e5 1 i1e5 1 ~i2t >= 1 ;
1 ~i0e-3 1 ~i1e-3 1 i2t >= 1 ;
1 ~i0e-2 1 ~i1e-2 1 i2t >= 1 ;
1 ~i0e-1 1 ~i1e-1 1 i2t >= 1 ;
1 ~i0e0 1 ~i1e0 1 i2t >= 1 ;
1 ~i0e1 1 ~i1e1 1 i2t >= 1 ;
1 ~i0e2 1 ~i1e2 1 i2t >= 1 ;
1 ~i0e3 1 ~i1e3 1 i2t >= 1 ;
1 ~i0e4 1 ~i1e4 1 i2t >= 1 ;
1 ~i0e5 1 ~i1e5 1 i2t >= 1 ;
